15-08-2018
17-08-2018
18-08-2018
22-08-2018
03-09-2018
17-09-2018
18-09-2018
19-09-2018
20-09-2018
21-09-2018
22-09-2018
02-10-2018
15-10-2018
16-10-2018
17-10-2018
18-10-2018
19-10-2018
20-10-2018
07-11-2018
21-11-2018
22-11-2018
23-11-2018
24-11-2018
25-11-2018
26-11-2018
27-11-2018
28-11-2018
29-11-2018
30-11-2018
01-12-2018
02-12-2018
03-12-2018
04-12-2018
05-12-2018
06-12-2018
07-12-2018
08-12-2018
09-12-2018
10-12-2018
11-12-2018
12-12-2018
13-12-2018
14-12-2018
15-12-2018
16-12-2018
17-12-2018
18-12-2018
19-12-2018
20-12-2018
21-12-2018
22-12-2018
23-12-2018
24-12-2018
25-12-2018
26-12-2018
27-12-2018
28-12-2018
29-12-2018
30-12-2018
31-12-2018